p tw 36 48
1 5
5 6
5 9
9 13
13 14
13 17
17 21
21 25
25 26
25 29
29 30
29 33
33 34
2 3
2 6
6 7
6 10
10 14
14 15
14 18
22 23
22 26
26 27
26 30
30 31
30 34
34 35
3 7
7 8
7 11
11 15
15 16
15 19
19 20
19 23
23 24
23 27
27 28
27 31
31 32
31 35
35 36
4 8
8 12
16 20
20 24
24 28
32 36
